NAME: tsp35_28
COMMENT: 35-tsp problem (Padberg/Rinaldi)
TYPE: TSP
DIMENSION: 35
EDGE_WEIGHT_TYPE : EUC_2D
NODE_COORD_SECTION
1 32 37
2 13 23
3 17 35
4 20 33
5 12 10
6 27 6
7 38 17
8 10 14
9 38 19
10 3 3
11 17 3
12 19 12
13 36 30
14 4 30
15 16 24
16 17 6
17 22 11
18 21 12
19 39 19
20 15 7
21 2 7
22 8 11
23 3 16
24 35 14
25 1 22
26 23 33
27 29 40
28 19 17
29 14 12
30 30 25
31 22 29
32 1 23
33 4 21
34 27 8
35 31 36
